Welcome to the CBC MILP Solver 
Version: 2.10.12 
Build Date: Aug 20 2024 

command line - /opt/homebrew/bin/cbc computational_data/real_data/lp/penguins_trial_007_margin.lp seconds 10.0 solve solu computational_data/real_data/solutions/penguins_trial_007_margin.sol (default strategy 1)
 CoinLpIO::readLp(): Maximization problem reformulated as minimization
Coin0009I Switching back to maximization to get correct duals etc
seconds was changed from 1e+100 to 10
Continuous objective value is 66.2081 - 0.00 seconds
Cgl0003I 0 fixed, 0 tightened bounds, 59 strengthened rows, 0 substitutions
Cgl0003I 0 fixed, 0 tightened bounds, 52 strengthened rows, 0 substitutions
Cgl0003I 0 fixed, 0 tightened bounds, 50 strengthened rows, 0 substitutions
Cgl0003I 0 fixed, 0 tightened bounds, 43 strengthened rows, 0 substitutions
Cgl0003I 0 fixed, 0 tightened bounds, 26 strengthened rows, 0 substitutions
Cgl0003I 0 fixed, 0 tightened bounds, 15 strengthened rows, 0 substitutions
Cgl0003I 0 fixed, 0 tightened bounds, 12 strengthened rows, 0 substitutions
Cgl0003I 0 fixed, 0 tightened bounds, 5 strengthened rows, 0 substitutions
Cgl0003I 0 fixed, 0 tightened bounds, 3 strengthened rows, 0 substitutions
Cgl0004I processed model has 52 rows, 26 columns (26 integer (25 of which binary)) and 452 elements
Cbc0038I Initial state - 3 integers unsatisfied sum - 1
Cbc0038I Pass   1: suminf.    0.66667 (2) obj. 65.3414 iterations 4
Cbc0038I Solution found of 64.0081
Cbc0038I Cleaned solution of 64.0081
Cbc0038I Before mini branch and bound, 23 integers at bound fixed and 0 continuous
Cbc0038I Full problem 52 rows 26 columns, reduced to 0 rows 0 columns
Cbc0038I Mini branch and bound did not improve solution (0.01 seconds)
Cbc0038I Round again with cutoff of 64.1747
Cbc0038I Pass   2: suminf.    0.66667 (2) obj. 65.3414 iterations 0
Cbc0038I Pass   3: suminf.    0.16668 (1) obj. 64.1747 iterations 2
Cbc0038I Pass   4: suminf.    0.33333 (1) obj. 64.6747 iterations 1
Cbc0038I Pass   5: suminf.    0.83332 (2) obj. 64.1747 iterations 7
Cbc0038I Pass   6: suminf.    0.33333 (1) obj. 64.6747 iterations 5
Cbc0038I Pass   7: suminf.    0.16668 (1) obj. 64.1747 iterations 7
Cbc0038I Pass   8: suminf.    0.83334 (3) obj. 64.1747 iterations 8
Cbc0038I Pass   9: suminf.    0.83334 (3) obj. 64.1747 iterations 4
Cbc0038I Pass  10: suminf.    0.33333 (1) obj. 64.3414 iterations 5
Cbc0038I Pass  11: suminf.    0.16668 (1) obj. 64.1747 iterations 2
Cbc0038I Pass  12: suminf.    0.33333 (1) obj. 64.6747 iterations 3
Cbc0038I Pass  13: suminf.    0.33333 (1) obj. 64.6747 iterations 7
Cbc0038I Pass  14: suminf.    0.33333 (1) obj. 64.6747 iterations 7
Cbc0038I Pass  15: suminf.    0.16668 (1) obj. 64.1747 iterations 3
Cbc0038I Pass  16: suminf.    0.83334 (3) obj. 64.1747 iterations 11
Cbc0038I Pass  17: suminf.    0.83334 (3) obj. 64.1747 iterations 6
Cbc0038I Pass  18: suminf.    0.33333 (1) obj. 64.3414 iterations 3
Cbc0038I Pass  19: suminf.    0.16668 (1) obj. 64.1747 iterations 2
Cbc0038I Pass  20: suminf.    0.33333 (1) obj. 64.6747 iterations 2
Cbc0038I Pass  21: suminf.    0.33333 (1) obj. 64.6747 iterations 12
Cbc0038I Pass  22: suminf.    0.33333 (1) obj. 64.6747 iterations 4
Cbc0038I Pass  23: suminf.    0.16668 (1) obj. 64.1747 iterations 1
Cbc0038I Pass  24: suminf.    0.83332 (2) obj. 64.1747 iterations 3
Cbc0038I Pass  25: suminf.    0.33333 (1) obj. 64.6747 iterations 1
Cbc0038I Pass  26: suminf.    0.16668 (1) obj. 64.1747 iterations 3
Cbc0038I Pass  27: suminf.    0.33333 (1) obj. 64.3414 iterations 17
Cbc0038I Pass  28: suminf.    0.16668 (1) obj. 64.1747 iterations 6
Cbc0038I Pass  29: suminf.    0.33333 (1) obj. 64.6747 iterations 1
Cbc0038I Pass  30: suminf.    0.33333 (1) obj. 64.6747 iterations 3
Cbc0038I Pass  31: suminf.    0.33333 (1) obj. 64.6747 iterations 3
Cbc0038I No solution found this major pass
Cbc0038I Before mini branch and bound, 14 integers at bound fixed and 0 continuous
Cbc0038I Full problem 52 rows 26 columns, reduced to 25 rows 12 columns
Cbc0038I Mini branch and bound did not improve solution (0.01 seconds)
Cbc0038I After 0.01 seconds - Feasibility pump exiting with objective of 64.0081 - took 0.00 seconds
Cbc0012I Integer solution of 64.008061 found by feasibility pump after 0 iterations and 0 nodes (0.01 seconds)
Cbc0031I 4 added rows had average density of 18.75
Cbc0013I At root node, 10 cuts changed objective from 65.674728 to 64.008061 in 1 passes
Cbc0014I Cut generator 0 (Probing) - 0 row cuts average 0.0 elements, 0 column cuts (0 active)  in 0.000 seconds - new frequency is -100
Cbc0014I Cut generator 1 (Gomory) - 3 row cuts average 19.3 elements, 0 column cuts (0 active)  in 0.000 seconds - new frequency is 1
Cbc0014I Cut generator 2 (Knapsack) - 3 row cuts average 14.0 elements, 0 column cuts (0 active)  in 0.000 seconds - new frequency is 1
Cbc0014I Cut generator 3 (Clique) - 0 row cuts average 0.0 elements, 0 column cuts (0 active)  in 0.000 seconds - new frequency is -100
Cbc0014I Cut generator 4 (MixedIntegerRounding2) - 0 row cuts average 0.0 elements, 0 column cuts (0 active)  in 0.000 seconds - new frequency is -100
Cbc0014I Cut generator 5 (FlowCover) - 0 row cuts average 0.0 elements, 0 column cuts (0 active)  in 0.000 seconds - new frequency is -100
Cbc0014I Cut generator 6 (TwoMirCuts) - 4 row cuts average 18.8 elements, 0 column cuts (0 active)  in 0.000 seconds - new frequency is -100
Cbc0001I Search completed - best objective 64.008061, took 0 iterations and 0 nodes (0.01 seconds)
Cbc0035I Maximum depth 0, 0 variables fixed on reduced cost
Cuts at root node changed objective from 65.6747 to 64.0081
Probing was tried 1 times and created 0 cuts of which 0 were active after adding rounds of cuts (0.000 seconds)
Gomory was tried 1 times and created 3 cuts of which 0 were active after adding rounds of cuts (0.000 seconds)
Knapsack was tried 1 times and created 3 cuts of which 0 were active after adding rounds of cuts (0.000 seconds)
Clique was tried 1 times and created 0 cuts of which 0 were active after adding rounds of cuts (0.000 seconds)
MixedIntegerRounding2 was tried 1 times and created 0 cuts of which 0 were active after adding rounds of cuts (0.000 seconds)
FlowCover was tried 1 times and created 0 cuts of which 0 were active after adding rounds of cuts (0.000 seconds)
TwoMirCuts was tried 1 times and created 4 cuts of which 0 were active after adding rounds of cuts (0.000 seconds)
ZeroHalf was tried 1 times and created 0 cuts of which 0 were active after adding rounds of cuts (0.000 seconds)

Result - Optimal solution found

Objective value:                64.00806100
Enumerated nodes:               0
Total iterations:               0
Time (CPU seconds):             0.01
Time (Wallclock seconds):       0.01

Total time (CPU seconds):       0.01   (Wallclock seconds):       0.01

